S = 4;
start = [|0,5,9,0,0,3,8,2,0,6,0,0,0,12,10,14|
0,2,0,0,10,0,5,0,0,4,0,0,0,0,16,0|
0,16,4,0,12,0,0,11,0,0,14,0,0,2,0,1|
10,11,0,7,0,0,6,16,12,5,0,0,0,9,4,15|
14,0,0,0,11,0,0,8,9,0,0,0,0,4,13,12|
5,0,0,0,0,0,0,0,0,0,0,13,0,3,0,0|
0,3,7,0,0,15,0,0,0,0,0,0,0,16,0,0|
0,8,13,0,0,0,0,0,0,16,0,15,10,1,6,0|
0,0,0,0,0,0,0,10,4,15,0,0,0,0,0,0|
0,0,1,0,0,0,14,6,13,0,0,0,5,0,0,0|
0,0,0,14,0,16,0,0,0,0,0,0,1,7,9,0|
0,0,8,0,0,5,0,0,2,0,0,0,0,14,0,0|
0,4,11,8,6,0,12,0,15,0,0,9,16,0,0,3|
15,7,0,0,0,0,0,0,5,3,8,0,0,0,0,0|
0,0,0,0,16,4,0,13,7,0,0,12,0,8,0,2|
3,13,0,0,0,0,0,0,0,0,0,0,4,11,1,7|];